(set-logic ALL)
(declare-const a_random97_0 String)
(declare-fun seed0_sigmaStar_0 () String)
(declare-fun seed0_sigmaStar_1 () String)
(declare-fun seed0_literal_13 () String)
(declare-fun seed0_x_12 () String)
(declare-fun seed0_epsilon () String)
(declare-fun seed0_literal_2 () String)
(declare-fun seed0_literal_6 () String)
(declare-fun seed0_literal_7 () String)
(declare-fun seed0_literal_5 () String)
(declare-fun seed0_x_14 () String)
(assert (and (and (= seed0_literal_13 "\u{67}\u{72}\u{61}\u{64}\u{65}\u{3a}\u{20}") (=> (str.prefixof (str.++ seed0_literal_7 seed0_literal_5) (str.++ seed0_literal_7 seed0_literal_5)) (str.<= (str.++ seed0_sigmaStar_0 seed0_epsilon) (str.++ seed0_sigmaStar_0 seed0_literal_6)))) (and (= seed0_epsilon "") (not (str.suffixof (str.++ seed0_literal_7 seed0_epsilon) (str.++ seed0_sigmaStar_0 seed0_epsilon)))) (and (= seed0_literal_2 "\u{20}\u{2f}\u{20}") (not (str.<= (str.++ seed0_x_14 seed0_literal_5) (str.++ seed0_literal_5 seed0_sigmaStar_0)))) (and (= seed0_literal_6 "\u{2d}") (or (str.< (str.++ seed0_x_14 seed0_sigmaStar_0) (str.++ seed0_literal_13 seed0_literal_7)) (str.<= (str.++ seed0_sigmaStar_0 seed0_epsilon) (str.++ seed0_literal_7 seed0_sigmaStar_1)))) (and (= seed0_literal_7 "\u{2d}") (or (str.<= (str.++ seed0_sigmaStar_0 seed0_literal_6) (str.++ seed0_literal_5 seed0_x_14)) (str.contains (str.++ seed0_sigmaStar_0 seed0_literal_2) (str.++ seed0_sigmaStar_1 seed0_x_12)))) (and (= seed0_literal_5 "\u{2d}") (not (str.< (str.++ seed0_sigmaStar_1 seed0_x_12) (str.++ seed0_literal_5 seed0_literal_5)))) (and (or (= seed0_x_12 seed0_epsilon) (= seed0_x_12 seed0_literal_2) (= seed0_x_12 seed0_literal_6) (= seed0_x_12 seed0_literal_7) (= seed0_x_12 seed0_literal_5)) (not (str.prefixof (str.++ seed0_literal_5 seed0_literal_2) (str.++ seed0_literal_7 seed0_literal_6)))) (and (and (str.suffixof seed0_x_14 a_random97_0) (str.prefixof seed0_x_14 a_random97_0) (str.suffixof (str.++ seed0_literal_13 seed0_x_12) a_random97_0) (str.prefixof (str.++ seed0_literal_13 seed0_x_12) a_random97_0)) (str.contains (str.++ seed0_literal_7 seed0_literal_13) (str.++ seed0_x_12 seed0_sigmaStar_0))) (and (str.in_re seed0_x_14 (re.++ (re.* re.allchar ) (re.++ (str.to_re "\u{5c}\u{3c}\u{53}\u{43}\u{52}\u{49}\u{50}\u{54}") (re.* re.allchar )))) (=> (str.contains (str.++ seed0_epsilon seed0_literal_5) (str.++ seed0_literal_2 seed0_literal_2)) (str.< (str.++ seed0_epsilon seed0_sigmaStar_0) (str.++ seed0_literal_2 seed0_literal_7))))))
(check-sat)
(exit)